1054
1005
1096
1051
1032
1067
1053
957
1023
1109
1104
1017
1017
995
1076
1021
1096
1106
987
1109
1019
1123
1023
1067
1048
1083
1040
1056
1007
1000
1051
1120
1025
978
1085
1024
1062
1044
1093
1097
1056
1056
1051
1045
920
1115
1101
1010
938
1010
969
1126
1090
991
1026
1009
995
1009
1089
1067
981
1060
1006
1087
1037
1041
1004
1058
1073
1042
993
1048
993
1047
1044
1021
1047
1045
997
1006
1084
1029
1012
1073
1101
1058
1079
1055
1035
1082
1010
1076
1020
1016
1001
1048
1033
1000
1036
1041
